Ca40 Mg8 O48
1.0
23.944544 -35.203795 -42.294416
25.939922 -29.336496 -38.769882
19.953786 -29.336496 -28.196278
Ca Mg O
40 8 48
direct
0.125000 1.000000 1.000000 Ca
0.041667 0.000000 1.000000 Ca
0.958333 1.000000 1.000000 Ca
0.875000 0.000000 0.000000 Ca
0.125000 1.000000 0.500000 Ca
0.791667 1.000000 0.000000 Ca
0.125000 0.500000 0.000000 Ca
0.708333 1.000000 1.000000 Ca
0.041667 0.500000 0.000000 Ca
0.958333 1.000000 0.500000 Ca
0.958333 0.500000 0.000000 Ca
0.875000 1.000000 0.500000 Ca
0.541667 1.000000 0.000000 Ca
0.875000 0.500000 1.000000 Ca
0.791667 1.000000 0.500000 Ca
0.458333 1.000000 1.000000 Ca
0.125000 0.500000 0.500000 Ca
0.791667 0.500000 1.000000 Ca
0.708333 1.000000 0.500000 Ca
0.041667 0.500000 0.500000 Ca
0.708333 0.500000 1.000000 Ca
0.625000 1.000000 0.500000 Ca
0.291667 1.000000 1.000000 Ca
0.958333 0.500000 0.500000 Ca
0.625000 0.500000 1.000000 Ca
0.541667 1.000000 0.500000 Ca
0.208333 1.000000 1.000000 Ca
0.541667 0.500000 1.000000 Ca
0.791667 0.500000 0.500000 Ca
0.375000 1.000000 0.500000 Ca
0.708333 0.500000 0.500000 Ca
0.375000 0.500000 1.000000 Ca
0.291667 1.000000 0.500000 Ca
0.625000 0.500000 0.500000 Ca
0.208333 1.000000 0.500000 Ca
0.541667 0.500000 0.500000 Ca
0.208333 0.500000 1.000000 Ca
0.458333 0.500000 0.500000 Ca
0.375000 0.500000 0.500000 Ca
0.291667 0.500000 0.500000 Ca
0.041667 1.000000 0.500000 Mg
0.625000 1.000000 1.000000 Mg
0.375000 1.000000 1.000000 Mg
0.875000 0.500000 0.500000 Mg
0.458333 1.000000 0.500000 Mg
0.458333 0.500000 0.000000 Mg
0.291667 0.500000 1.000000 Mg
0.208333 0.500000 0.500000 Mg
0.916667 0.500000 0.500000 O
0.833333 0.500000 0.500000 O
0.750000 0.500000 0.500000 O
0.666667 0.500000 0.500000 O
0.916667 0.500000 0.000000 O
0.583333 0.500000 0.500000 O
0.916667 1.000000 0.500000 O
0.833333 0.500000 0.000000 O
0.500000 0.500000 0.500000 O
0.833333 1.000000 0.500000 O
0.750000 0.500000 0.000000 O
0.416667 0.500000 0.500000 O
0.750000 1.000000 0.500000 O
0.666667 0.500000 0.000000 O
0.333333 0.500000 0.500000 O
0.666667 1.000000 0.500000 O
0.583333 0.500000 1.000000 O
0.250000 0.500000 0.500000 O
0.916667 1.000000 0.000000 O
0.583333 1.000000 0.500000 O
0.500000 0.500000 0.000000 O
0.166667 0.500000 0.500000 O
0.833333 1.000000 1.000000 O
0.500000 0.000000 0.500000 O
0.416667 0.500000 0.000000 O
0.083333 0.500000 0.500000 O
0.750000 1.000000 0.000000 O
0.416667 0.000000 0.500000 O
0.333333 0.500000 0.000000 O
0.000000 0.500000 0.500000 O
0.666667 1.000000 0.000000 O
0.333333 1.000000 0.500000 O
0.250000 0.500000 1.000000 O
0.583333 1.000000 0.000000 O
0.250000 1.000000 0.500000 O
0.166667 0.500000 0.000000 O
0.500000 1.000000 0.000000 O
0.166667 1.000000 0.500000 O
0.083333 0.500000 0.000000 O
0.416667 1.000000 1.000000 O
0.083333 1.000000 0.500000 O
0.000000 0.500000 0.000000 O
0.333333 1.000000 0.000000 O
1.000000 1.000000 0.500000 O
0.250000 1.000000 0.000000 O
0.166667 1.000000 0.000000 O
0.083333 1.000000 0.000000 O
0.000000 0.000000 0.000000 O
