ALGO = Veryfast
EDIFF = 1e-06
EDIFFG = -0.02
ENCUT = 520
IBRION = 2
ICHARG = 1
ISIF = 3
ISMEAR = 0
ISPIN = 2
ISYM = 0
LCHARG = False
LORBIT = 11
LREAL = Auto
LSCALU = False
LVTOT = False
LWAVE = False
MAGMOM = 64*0.6
NELM = 400
NELMDL = -6
NELMIN = 8
NPAR = 2
NSIM = 2
NSW = 1000
POTIM = 0.25
PREC = Accurate
SIGMA = 0.05
