Ca8 Mg56 O64
1.0
7.902490 -11.175808 -13.687513
5.926867 -0.000000 -3.421878
7.902490 -11.175808 13.687513
Ca Mg O
8 56 64
direct
0.750000 0.500000 0.125000 Ca2+
0.875000 1.000000 0.250000 Ca2+
0.500000 0.500000 0.125000 Ca2+
0.500000 0.500000 0.625000 Ca2+
0.250000 0.500000 0.625000 Ca2+
0.000000 0.000000 0.375000 Ca2+
0.625000 0.000000 1.000000 Ca2+
0.125000 0.500000 0.750000 Ca2+
0.875000 0.500000 0.250000 Mg2+
0.750000 1.000000 0.125000 Mg2+
0.625000 0.500000 0.250000 Mg2+
0.750000 0.500000 0.375000 Mg2+
0.875000 0.500000 0.500000 Mg2+
0.500000 0.000000 0.125000 Mg2+
0.625000 1.000000 0.250000 Mg2+
0.750000 1.000000 0.375000 Mg2+
0.875000 0.000000 0.500000 Mg2+
0.250000 0.500000 0.125000 Mg2+
0.375000 0.500000 0.250000 Mg2+
0.500000 0.500000 0.375000 Mg2+
0.625000 0.500000 0.500000 Mg2+
0.750000 0.500000 0.625000 Mg2+
0.875000 0.500000 0.750000 Mg2+
0.250000 0.000000 0.125000 Mg2+
0.375000 0.000000 0.250000 Mg2+
0.500000 1.000000 0.375000 Mg2+
0.625000 1.000000 0.500000 Mg2+
0.750000 0.000000 0.625000 Mg2+
0.875000 0.000000 0.750000 Mg2+
0.000000 0.500000 0.125000 Mg2+
0.125000 0.500000 0.250000 Mg2+
0.250000 0.500000 0.375000 Mg2+
0.375000 0.500000 0.500000 Mg2+
0.625000 0.500000 0.750000 Mg2+
0.750000 0.500000 0.875000 Mg2+
0.875000 0.500000 0.000000 Mg2+
0.000000 1.000000 0.125000 Mg2+
0.125000 0.000000 0.250000 Mg2+
0.250000 0.000000 0.375000 Mg2+
0.375000 1.000000 0.500000 Mg2+
0.500000 1.000000 0.625000 Mg2+
0.625000 0.000000 0.750000 Mg2+
0.750000 0.000000 0.875000 Mg2+
0.875000 1.000000 0.000000 Mg2+
0.000000 0.500000 0.375000 Mg2+
0.125000 0.500000 0.500000 Mg2+
0.375000 0.500000 0.750000 Mg2+
0.500000 0.500000 0.875000 Mg2+
0.625000 0.500000 1.000000 Mg2+
0.125000 0.000000 0.500000 Mg2+
0.250000 1.000000 0.625000 Mg2+
0.375000 1.000000 0.750000 Mg2+
0.500000 0.000000 0.875000 Mg2+
0.000000 0.500000 0.625000 Mg2+
0.250000 0.500000 0.875000 Mg2+
0.375000 0.500000 0.000000 Mg2+
0.000000 0.000000 0.625000 Mg2+
0.125000 1.000000 0.750000 Mg2+
0.250000 1.000000 0.875000 Mg2+
0.375000 0.000000 0.000000 Mg2+
0.000000 0.500000 0.875000 Mg2+
0.125000 0.500000 1.000000 Mg2+
0.000000 1.000000 0.875000 Mg2+
0.125000 1.000000 1.000000 Mg2+
0.750000 1.000000 1.000000 O2-
0.875000 1.000000 0.125000 O2-
0.750000 0.500000 1.000000 O2-
0.875000 0.500000 0.125000 O2-
0.500000 1.000000 1.000000 O2-
0.625000 1.000000 0.125000 O2-
0.750000 1.000000 0.250000 O2-
0.875000 1.000000 0.375000 O2-
0.500000 0.500000 1.000000 O2-
0.625000 0.500000 0.125000 O2-
0.750000 0.500000 0.250000 O2-
0.875000 0.500000 0.375000 O2-
0.250000 1.000000 1.000000 O2-
0.375000 1.000000 0.125000 O2-
0.500000 1.000000 0.250000 O2-
0.625000 1.000000 0.375000 O2-
0.750000 1.000000 0.500000 O2-
0.875000 1.000000 0.625000 O2-
0.250000 0.500000 1.000000 O2-
0.375000 0.500000 0.125000 O2-
0.500000 0.500000 0.250000 O2-
0.625000 0.500000 0.375000 O2-
0.750000 0.500000 0.500000 O2-
0.875000 0.500000 0.625000 O2-
0.000000 0.000000 0.000000 O2-
0.125000 1.000000 0.125000 O2-
0.250000 1.000000 0.250000 O2-
0.375000 1.000000 0.375000 O2-
0.500000 1.000000 0.500000 O2-
0.625000 1.000000 0.625000 O2-
0.750000 1.000000 0.750000 O2-
0.875000 1.000000 0.875000 O2-
0.000000 0.500000 1.000000 O2-
0.125000 0.500000 0.125000 O2-
0.250000 0.500000 0.250000 O2-
0.375000 0.500000 0.375000 O2-
0.500000 0.500000 0.500000 O2-
0.625000 0.500000 0.625000 O2-
0.750000 0.500000 0.750000 O2-
0.875000 0.500000 0.875000 O2-
1.000000 0.000000 0.250000 O2-
0.125000 0.000000 0.375000 O2-
0.250000 1.000000 0.500000 O2-
0.375000 0.000000 0.625000 O2-
0.500000 1.000000 0.750000 O2-
0.625000 1.000000 0.875000 O2-
0.000000 0.500000 0.250000 O2-
0.125000 0.500000 0.375000 O2-
0.250000 0.500000 0.500000 O2-
0.375000 0.500000 0.625000 O2-
0.500000 0.500000 0.750000 O2-
0.625000 0.500000 0.875000 O2-
1.000000 0.000000 0.500000 O2-
0.125000 1.000000 0.625000 O2-
0.250000 0.000000 0.750000 O2-
0.375000 1.000000 0.875000 O2-
0.000000 0.500000 0.500000 O2-
0.125000 0.500000 0.625000 O2-
0.250000 0.500000 0.750000 O2-
0.375000 0.500000 0.875000 O2-
1.000000 1.000000 0.750000 O2-
0.125000 0.000000 0.875000 O2-
0.000000 0.500000 0.750000 O2-
0.125000 0.500000 0.875000 O2-
