Ca8 Mg40 O48
1.0
-7.981515 11.734598 14.098138
-9.976893 14.668248 -3.524534
-7.981515 2.933650 -7.049070
Ca Mg O
8 40 48
direct
0.958333 0.833333 0.500000 Ca
0.041667 0.166667 0.500000 Ca
0.083333 0.333333 0.500000 Ca
0.083333 0.833333 0.000000 Ca
0.833333 0.833333 1.000000 Ca
0.291667 0.166667 0.500000 Ca
0.666667 0.166667 0.000000 Ca
0.500000 0.500000 0.000000 Ca
1.000000 0.000000 0.500000 Mg
0.125000 0.500000 0.500000 Mg
0.166667 0.666667 0.500000 Mg
0.708333 0.833333 0.500000 Mg
0.750000 1.000000 0.500000 Mg
0.791667 0.166667 0.500000 Mg
0.833333 0.333333 0.500000 Mg
0.875000 0.500000 0.500000 Mg
0.916667 0.666667 0.500000 Mg
0.125000 1.000000 1.000000 Mg
0.166667 0.166667 0.000000 Mg
0.458333 0.833333 0.500000 Mg
0.500000 1.000000 0.500000 Mg
0.541667 0.166667 0.500000 Mg
0.583333 0.333333 0.500000 Mg
0.625000 0.500000 0.500000 Mg
0.666667 0.666667 0.500000 Mg
0.875000 0.000000 1.000000 Mg
0.916667 0.166667 1.000000 Mg
0.958333 0.333333 1.000000 Mg
0.000000 0.500000 0.000000 Mg
0.041667 0.666667 1.000000 Mg
0.208333 0.833333 0.500000 Mg
0.250000 1.000000 0.500000 Mg
0.333333 0.333333 0.500000 Mg
0.375000 0.500000 0.500000 Mg
0.416667 0.666667 0.500000 Mg
0.583333 0.833333 0.000000 Mg
0.625000 0.000000 1.000000 Mg
0.708333 0.333333 0.000000 Mg
0.750000 0.500000 0.000000 Mg
0.791667 0.666667 0.000000 Mg
0.333333 0.833333 0.000000 Mg
0.375000 0.000000 0.000000 Mg
0.416667 0.166667 0.000000 Mg
0.458333 0.333333 1.000000 Mg
0.541667 0.666667 0.000000 Mg
0.208333 0.333333 1.000000 Mg
0.250000 0.500000 1.000000 Mg
0.291667 0.666667 1.000000 Mg
0.750000 1.000000 0.000000 O
0.791667 0.166667 1.000000 O
0.833333 0.333333 1.000000 O
0.875000 0.500000 1.000000 O
0.916667 0.666667 0.000000 O
0.958333 0.833333 1.000000 O
0.500000 1.000000 0.000000 O
0.541667 0.166667 0.000000 O
0.583333 0.333333 0.000000 O
0.625000 0.500000 1.000000 O
0.666667 0.666667 0.000000 O
0.708333 0.833333 0.000000 O
0.875000 1.000000 0.500000 O
0.916667 0.166667 0.500000 O
0.958333 0.333333 0.500000 O
0.250000 1.000000 0.000000 O
0.291667 0.166667 0.000000 O
0.333333 0.333333 0.000000 O
0.375000 0.500000 0.000000 O
0.416667 0.666667 0.000000 O
0.458333 0.833333 0.000000 O
0.625000 0.000000 0.500000 O
0.666667 0.166667 0.500000 O
0.708333 0.333333 0.500000 O
0.750000 0.500000 0.500000 O
0.791667 0.666667 0.500000 O
0.833333 0.833333 0.500000 O
0.000000 0.000000 0.000000 O
0.041667 0.166667 0.000000 O
0.083333 0.333333 0.000000 O
0.125000 0.500000 1.000000 O
0.166667 0.666667 0.000000 O
0.208333 0.833333 1.000000 O
0.375000 1.000000 0.500000 O
0.416667 0.166667 0.500000 O
0.458333 0.333333 0.500000 O
0.500000 0.500000 0.500000 O
0.541667 0.666667 0.500000 O
0.583333 0.833333 0.500000 O
0.125000 0.000000 0.500000 O
0.166667 0.166667 0.500000 O
0.208333 0.333333 0.500000 O
0.250000 0.500000 0.500000 O
0.291667 0.666667 0.500000 O
0.333333 0.833333 0.500000 O
1.000000 0.500000 0.500000 O
0.041667 0.666667 0.500000 O
0.083333 0.833333 0.500000 O
