Ca56 Mg8 O64
1.0
-7.981515 11.734598 14.098138
-13.967651 20.535547 -3.524534
-15.963029 14.668248 0.000000
Ca Mg O
56 8 64
direct
0.687500 0.750000 0.500000 Ca
0.718750 0.875000 0.500000 Ca
0.750000 1.000000 0.500000 Ca
0.812500 0.250000 0.500000 Ca
0.843750 0.375000 0.500000 Ca
0.875000 0.500000 0.500000 Ca
0.906250 0.625000 0.500000 Ca
0.812500 0.750000 0.000000 Ca
0.843750 0.875000 1.000000 Ca
0.875000 1.000000 0.000000 Ca
0.437500 0.750000 0.500000 Ca
0.500000 1.000000 0.500000 Ca
0.531250 0.125000 0.500000 Ca
0.562500 0.250000 0.500000 Ca
0.593750 0.375000 0.500000 Ca
0.625000 0.500000 0.500000 Ca
0.656250 0.625000 0.500000 Ca
0.562500 0.750000 0.000000 Ca
0.593750 0.875000 0.000000 Ca
0.625000 1.000000 1.000000 Ca
0.656250 0.125000 0.000000 Ca
0.687500 0.250000 1.000000 Ca
0.718750 0.375000 1.000000 Ca
0.750000 0.500000 0.000000 Ca
0.187500 0.750000 0.500000 Ca
0.218750 0.875000 0.500000 Ca
0.250000 1.000000 0.500000 Ca
0.281250 0.125000 0.500000 Ca
0.312500 0.250000 0.500000 Ca
0.343750 0.375000 0.500000 Ca
0.375000 0.500000 0.500000 Ca
0.406250 0.625000 0.500000 Ca
0.312500 0.750000 1.000000 Ca
0.343750 0.875000 0.000000 Ca
0.375000 1.000000 0.000000 Ca
0.406250 0.125000 1.000000 Ca
0.437500 0.250000 0.000000 Ca
0.468750 0.375000 1.000000 Ca
0.500000 0.500000 1.000000 Ca
0.531250 0.625000 0.000000 Ca
0.937500 0.750000 0.500000 Ca
1.000000 1.000000 0.500000 Ca
0.031250 0.125000 0.500000 Ca
0.062500 0.250000 0.500000 Ca
0.093750 0.375000 0.500000 Ca
0.125000 0.500000 0.500000 Ca
0.156250 0.625000 0.500000 Ca
0.093750 0.875000 1.000000 Ca
0.125000 1.000000 0.000000 Ca
0.187500 0.250000 1.000000 Ca
0.250000 0.500000 1.000000 Ca
0.281250 0.625000 1.000000 Ca
0.937500 0.250000 0.000000 Ca
0.968750 0.375000 1.000000 Ca
1.000000 0.500000 0.000000 Ca
0.031250 0.625000 1.000000 Ca
0.781250 0.125000 0.500000 Mg
0.906250 0.125000 1.000000 Mg
0.468750 0.875000 0.500000 Mg
0.781250 0.625000 0.000000 Mg
0.968750 0.875000 0.500000 Mg
0.062500 0.750000 1.000000 Mg
0.156250 0.125000 0.000000 Mg
0.218750 0.375000 0.000000 Mg
0.750000 1.000000 0.000000 O
0.781250 0.125000 0.000000 O
0.812500 0.250000 0.000000 O
0.843750 0.375000 0.000000 O
0.875000 0.500000 1.000000 O
0.906250 0.625000 0.000000 O
0.937500 0.750000 0.000000 O
0.968750 0.875000 1.000000 O
0.875000 1.000000 0.500000 O
0.906250 0.125000 0.500000 O
0.937500 0.250000 0.500000 O
0.968750 0.375000 0.500000 O
0.500000 1.000000 0.000000 O
0.531250 0.125000 0.000000 O
0.562500 0.250000 0.000000 O
0.593750 0.375000 1.000000 O
0.625000 0.500000 0.000000 O
0.656250 0.625000 1.000000 O
0.687500 0.750000 0.000000 O
0.718750 0.875000 1.000000 O
0.625000 1.000000 0.500000 O
0.656250 0.125000 0.500000 O
0.687500 0.250000 0.500000 O
0.718750 0.375000 0.500000 O
0.750000 0.500000 0.500000 O
0.781250 0.625000 0.500000 O
0.812500 0.750000 0.500000 O
0.843750 0.875000 0.500000 O
0.250000 1.000000 0.000000 O
0.281250 0.125000 0.000000 O
0.312500 0.250000 0.000000 O
0.343750 0.375000 0.000000 O
0.375000 0.500000 1.000000 O
0.406250 0.625000 0.000000 O
0.437500 0.750000 1.000000 O
0.468750 0.875000 0.000000 O
0.375000 1.000000 0.500000 O
0.406250 0.125000 0.500000 O
0.437500 0.250000 0.500000 O
0.468750 0.375000 0.500000 O
0.500000 0.500000 0.500000 O
0.531250 0.625000 0.500000 O
0.562500 0.750000 0.500000 O
0.593750 0.875000 0.500000 O
0.000000 0.000000 0.000000 O
0.031250 0.125000 0.000000 O
0.062500 0.250000 0.000000 O
0.093750 0.375000 0.000000 O
0.125000 0.500000 0.000000 O
0.156250 0.625000 1.000000 O
0.187500 0.750000 0.000000 O
0.218750 0.875000 1.000000 O
0.125000 1.000000 0.500000 O
0.156250 0.125000 0.500000 O
0.187500 0.250000 0.500000 O
0.218750 0.375000 0.500000 O
0.250000 0.500000 0.500000 O
0.281250 0.625000 0.500000 O
0.312500 0.750000 0.500000 O
0.343750 0.875000 0.500000 O
1.000000 0.500000 0.500000 O
0.031250 0.625000 0.500000 O
0.062500 0.750000 0.500000 O
0.093750 0.875000 0.500000 O
