Ca32 Mg16 O48
1.0
-5.926867 8.381856 10.265635
-1.975622 2.793952 -3.421878
-15.804979 -11.175808 -0.000000
Ca Mg O
32 16 48
direct
1.000000 1.000000 0.125000 Ca2+
1.000000 0.500000 0.250000 Ca2+
0.500000 0.500000 0.125000 Ca2+
0.666667 0.000000 0.125000 Ca2+
0.666667 0.500000 0.250000 Ca2+
1.000000 0.000000 0.375000 Ca2+
1.000000 0.500000 0.500000 Ca2+
0.166667 0.500000 0.125000 Ca2+
0.333333 0.500000 0.250000 Ca2+
0.500000 0.000000 0.250000 Ca2+
0.500000 0.500000 0.375000 Ca2+
0.666667 0.000000 0.375000 Ca2+
0.666667 0.500000 0.500000 Ca2+
0.833333 0.500000 0.625000 Ca2+
1.000000 0.500000 0.750000 Ca2+
0.333333 0.500000 0.500000 Ca2+
0.500000 0.000000 0.500000 Ca2+
0.500000 0.500000 0.625000 Ca2+
0.666667 0.000000 0.625000 Ca2+
1.000000 0.500000 1.000000 Ca2+
0.166667 1.000000 0.500000 Ca2+
0.166667 0.500000 0.625000 Ca2+
0.333333 1.000000 0.625000 Ca2+
0.333333 0.500000 0.750000 Ca2+
0.500000 0.000000 0.750000 Ca2+
0.666667 0.000000 0.875000 Ca2+
0.666667 0.500000 1.000000 Ca2+
0.833333 0.000000 1.000000 Ca2+
0.166667 1.000000 0.750000 Ca2+
0.333333 0.000000 0.875000 Ca2+
0.333333 0.500000 0.000000 Ca2+
0.500000 0.000000 1.000000 Ca2+
0.833333 0.500000 0.125000 Mg2+
0.833333 0.000000 0.250000 Mg2+
0.833333 0.500000 0.375000 Mg2+
0.333333 0.000000 0.125000 Mg2+
0.833333 1.000000 0.500000 Mg2+
1.000000 0.000000 0.625000 Mg2+
0.166667 0.000000 0.250000 Mg2+
0.166667 0.500000 0.375000 Mg2+
0.333333 0.000000 0.375000 Mg2+
0.666667 0.500000 0.750000 Mg2+
0.833333 0.000000 0.750000 Mg2+
0.833333 0.500000 0.875000 Mg2+
1.000000 0.000000 0.875000 Mg2+
0.500000 0.500000 0.875000 Mg2+
0.166667 0.500000 0.875000 Mg2+
0.166667 0.000000 0.000000 Mg2+
0.666667 0.000000 1.000000 O2-
0.833333 0.500000 1.000000 O2-
0.833333 0.000000 0.125000 O2-
0.333333 0.000000 1.000000 O2-
0.500000 0.500000 1.000000 O2-
0.500000 0.000000 0.125000 O2-
0.666667 0.500000 0.125000 O2-
0.666667 0.000000 0.250000 O2-
0.833333 0.500000 0.250000 O2-
0.833333 0.000000 0.375000 O2-
0.000000 0.000000 0.000000 O2-
0.166667 0.500000 1.000000 O2-
0.166667 0.000000 0.125000 O2-
0.333333 0.500000 0.125000 O2-
0.333333 0.000000 0.250000 O2-
0.500000 0.500000 0.250000 O2-
0.500000 0.000000 0.375000 O2-
0.666667 0.500000 0.375000 O2-
0.666667 0.000000 0.500000 O2-
0.833333 0.500000 0.500000 O2-
0.833333 0.000000 0.625000 O2-
1.000000 0.500000 0.125000 O2-
0.000000 1.000000 0.250000 O2-
0.166667 0.500000 0.250000 O2-
0.166667 0.000000 0.375000 O2-
0.333333 0.500000 0.375000 O2-
0.333333 0.000000 0.500000 O2-
0.500000 0.500000 0.500000 O2-
0.500000 0.000000 0.625000 O2-
0.666667 0.500000 0.625000 O2-
0.666667 0.000000 0.750000 O2-
0.833333 0.500000 0.750000 O2-
0.833333 0.000000 0.875000 O2-
1.000000 0.500000 0.375000 O2-
0.000000 1.000000 0.500000 O2-
0.166667 0.500000 0.500000 O2-
0.166667 1.000000 0.625000 O2-
0.333333 0.500000 0.625000 O2-
0.333333 0.000000 0.750000 O2-
0.500000 0.500000 0.750000 O2-
0.500000 0.000000 0.875000 O2-
0.666667 0.500000 0.875000 O2-
1.000000 0.500000 0.625000 O2-
0.000000 0.000000 0.750000 O2-
0.166667 0.500000 0.750000 O2-
0.166667 0.000000 0.875000 O2-
0.333333 0.500000 0.875000 O2-
0.000000 0.500000 0.875000 O2-
