Ca16 Mg32 O48
1.0
23.707469 -33.527424 -41.062540
25.683091 -27.939520 -37.640662
19.756224 -27.939520 -27.375027
Ca Mg O
16 32 48
direct
0.125000 1.000000 1.000000 Ca2+
0.041667 0.000000 1.000000 Ca2+
0.125000 0.500000 0.000000 Ca2+
0.958333 1.000000 0.500000 Ca2+
0.875000 0.500000 1.000000 Ca2+
0.791667 1.000000 0.500000 Ca2+
0.791667 0.500000 1.000000 Ca2+
0.708333 1.000000 0.500000 Ca2+
0.375000 1.000000 1.000000 Ca2+
0.291667 1.000000 1.000000 Ca2+
0.625000 0.500000 1.000000 Ca2+
0.541667 1.000000 0.500000 Ca2+
0.208333 1.000000 0.500000 Ca2+
0.458333 0.500000 0.500000 Ca2+
0.291667 0.500000 0.500000 Ca2+
0.208333 0.500000 0.500000 Ca2+
0.958333 1.000000 1.000000 Mg2+
0.875000 0.000000 0.000000 Mg2+
0.125000 1.000000 0.500000 Mg2+
0.791667 1.000000 0.000000 Mg2+
0.041667 1.000000 0.500000 Mg2+
0.708333 1.000000 1.000000 Mg2+
0.041667 0.500000 0.000000 Mg2+
0.625000 1.000000 1.000000 Mg2+
0.958333 0.500000 0.000000 Mg2+
0.875000 1.000000 0.500000 Mg2+
0.541667 1.000000 0.000000 Mg2+
0.458333 1.000000 1.000000 Mg2+
0.125000 0.500000 0.500000 Mg2+
0.041667 0.500000 0.500000 Mg2+
0.708333 0.500000 1.000000 Mg2+
0.625000 1.000000 0.500000 Mg2+
0.958333 0.500000 0.500000 Mg2+
0.208333 1.000000 1.000000 Mg2+
0.875000 0.500000 0.500000 Mg2+
0.541667 0.500000 1.000000 Mg2+
0.458333 1.000000 0.500000 Mg2+
0.791667 0.500000 0.500000 Mg2+
0.458333 0.500000 0.000000 Mg2+
0.375000 1.000000 0.500000 Mg2+
0.708333 0.500000 0.500000 Mg2+
0.375000 0.500000 1.000000 Mg2+
0.291667 1.000000 0.500000 Mg2+
0.625000 0.500000 0.500000 Mg2+
0.291667 0.500000 1.000000 Mg2+
0.541667 0.500000 0.500000 Mg2+
0.208333 0.500000 1.000000 Mg2+
0.375000 0.500000 0.500000 Mg2+
0.916667 0.500000 0.500000 O2-
0.833333 0.500000 0.500000 O2-
0.750000 0.500000 0.500000 O2-
0.666667 0.500000 0.500000 O2-
0.916667 0.500000 0.000000 O2-
0.583333 0.500000 0.500000 O2-
0.916667 1.000000 0.500000 O2-
0.833333 0.500000 0.000000 O2-
0.500000 0.500000 0.500000 O2-
0.833333 1.000000 0.500000 O2-
0.750000 0.500000 0.000000 O2-
0.416667 0.500000 0.500000 O2-
0.750000 1.000000 0.500000 O2-
0.666667 0.500000 0.000000 O2-
0.333333 0.500000 0.500000 O2-
0.666667 1.000000 0.500000 O2-
0.583333 0.500000 1.000000 O2-
0.250000 0.500000 0.500000 O2-
0.916667 1.000000 0.000000 O2-
0.583333 1.000000 0.500000 O2-
0.500000 0.500000 0.000000 O2-
0.166667 0.500000 0.500000 O2-
0.833333 1.000000 1.000000 O2-
0.500000 0.000000 0.500000 O2-
0.416667 0.500000 0.000000 O2-
0.083333 0.500000 0.500000 O2-
0.750000 1.000000 0.000000 O2-
0.416667 0.000000 0.500000 O2-
0.333333 0.500000 0.000000 O2-
0.000000 0.500000 0.500000 O2-
0.666667 1.000000 0.000000 O2-
0.333333 1.000000 0.500000 O2-
0.250000 0.500000 1.000000 O2-
0.583333 1.000000 0.000000 O2-
0.250000 1.000000 0.500000 O2-
0.166667 0.500000 0.000000 O2-
0.500000 1.000000 0.000000 O2-
0.166667 1.000000 0.500000 O2-
0.083333 0.500000 0.000000 O2-
0.416667 1.000000 1.000000 O2-
0.083333 1.000000 0.500000 O2-
0.000000 0.500000 0.000000 O2-
0.333333 1.000000 0.000000 O2-
1.000000 1.000000 0.500000 O2-
0.250000 1.000000 0.000000 O2-
0.166667 1.000000 0.000000 O2-
0.083333 1.000000 0.000000 O2-
0.000000 0.000000 0.000000 O2-
