Ca24 Mg40 O64
1.0
-1.975622 2.793952 3.421878
-3.951245 5.587904 -6.843757
-31.609958 -22.351616 -0.000000
Ca Mg O
24 40 64
direct
1.000000 0.500000 0.062500 Ca2+
1.000000 0.000000 0.062500 Ca2+
0.500000 0.500000 0.125000 Ca2+
0.000000 0.750000 0.125000 Ca2+
0.500000 0.250000 0.187500 Ca2+
0.000000 0.500000 0.187500 Ca2+
0.000000 0.250000 0.250000 Ca2+
0.500000 0.250000 0.437500 Ca2+
1.000000 0.000000 0.437500 Ca2+
1.000000 0.250000 0.625000 Ca2+
0.500000 0.000000 0.500000 Ca2+
0.500000 0.500000 0.625000 Ca2+
0.500000 0.250000 0.687500 Ca2+
0.500000 0.750000 0.687500 Ca2+
0.000000 0.750000 0.750000 Ca2+
0.500000 0.250000 0.812500 Ca2+
0.000000 0.250000 0.875000 Ca2+
0.500000 0.500000 0.875000 Ca2+
0.000000 0.750000 0.875000 Ca2+
0.000000 0.500000 0.937500 Ca2+
0.500000 0.750000 0.937500 Ca2+
0.000000 0.000000 0.937500 Ca2+
0.000000 0.750000 0.000000 Ca2+
0.500000 0.000000 0.000000 Ca2+
0.500000 0.250000 0.062500 Mg2+
0.000000 0.250000 0.125000 Mg2+
0.500000 0.750000 0.062500 Mg2+
0.500000 0.000000 0.125000 Mg2+
0.500000 0.750000 0.187500 Mg2+
0.000000 0.000000 0.187500 Mg2+
0.500000 0.500000 0.250000 Mg2+
0.000000 0.750000 0.250000 Mg2+
0.500000 0.250000 0.312500 Mg2+
1.000000 0.500000 0.312500 Mg2+
0.000000 0.250000 0.375000 Mg2+
0.500000 0.000000 0.250000 Mg2+
0.500000 0.750000 0.312500 Mg2+
0.000000 0.000000 0.312500 Mg2+
0.500000 0.500000 0.375000 Mg2+
0.000000 0.750000 0.375000 Mg2+
0.000000 0.500000 0.437500 Mg2+
0.000000 0.250000 0.500000 Mg2+
0.500000 0.000000 0.375000 Mg2+
0.500000 0.750000 0.437500 Mg2+
0.500000 0.500000 0.500000 Mg2+
1.000000 0.750000 0.500000 Mg2+
0.500000 0.250000 0.562500 Mg2+
1.000000 0.500000 0.562500 Mg2+
0.500000 0.750000 0.562500 Mg2+
1.000000 0.000000 0.562500 Mg2+
0.000000 0.750000 0.625000 Mg2+
1.000000 0.500000 0.687500 Mg2+
0.000000 0.250000 0.750000 Mg2+
0.500000 1.000000 0.625000 Mg2+
1.000000 0.000000 0.687500 Mg2+
0.500000 0.500000 0.750000 Mg2+
0.000000 0.500000 0.812500 Mg2+
0.500000 0.000000 0.750000 Mg2+
0.500000 0.750000 0.812500 Mg2+
0.000000 0.000000 0.812500 Mg2+
0.500000 0.250000 0.937500 Mg2+
0.000000 0.250000 0.000000 Mg2+
0.500000 0.000000 0.875000 Mg2+
0.500000 0.500000 0.000000 Mg2+
0.000000 0.000000 0.000000 O2-
0.500000 0.250000 0.000000 O2-
0.500000 0.000000 0.062500 O2-
1.000000 0.500000 0.000000 O2-
0.500000 0.750000 0.000000 O2-
1.000000 0.250000 0.062500 O2-
0.500000 0.500000 0.062500 O2-
0.000000 1.000000 0.125000 O2-
0.500000 0.250000 0.125000 O2-
0.500000 0.000000 0.187500 O2-
0.000000 0.750000 0.062500 O2-
1.000000 0.500000 0.125000 O2-
0.500000 0.750000 0.125000 O2-
0.000000 0.250000 0.187500 O2-
0.500000 0.500000 0.187500 O2-
0.000000 1.000000 0.250000 O2-
0.500000 0.250000 0.250000 O2-
0.500000 1.000000 0.312500 O2-
1.000000 0.750000 0.187500 O2-
0.000000 0.500000 0.250000 O2-
0.500000 0.750000 0.250000 O2-
1.000000 0.250000 0.312500 O2-
0.500000 0.500000 0.312500 O2-
0.000000 0.000000 0.375000 O2-
0.500000 0.250000 0.375000 O2-
0.500000 0.000000 0.437500 O2-
0.000000 0.750000 0.312500 O2-
0.000000 0.500000 0.375000 O2-
0.500000 0.750000 0.375000 O2-
0.000000 0.250000 0.437500 O2-
0.500000 0.500000 0.437500 O2-
0.000000 1.000000 0.500000 O2-
0.500000 0.250000 0.500000 O2-
0.500000 0.000000 0.562500 O2-
0.000000 0.750000 0.437500 O2-
0.000000 0.500000 0.500000 O2-
0.500000 0.750000 0.500000 O2-
0.000000 0.250000 0.562500 O2-
0.500000 0.500000 0.562500 O2-
0.000000 1.000000 0.625000 O2-
0.500000 0.250000 0.625000 O2-
0.500000 0.000000 0.687500 O2-
1.000000 0.750000 0.562500 O2-
1.000000 0.500000 0.625000 O2-
0.500000 0.750000 0.625000 O2-
0.000000 0.250000 0.687500 O2-
0.500000 0.500000 0.687500 O2-
0.000000 0.000000 0.750000 O2-
0.500000 0.250000 0.750000 O2-
0.500000 0.000000 0.812500 O2-
1.000000 0.750000 0.687500 O2-
0.000000 0.500000 0.750000 O2-
0.500000 0.750000 0.750000 O2-
0.000000 0.250000 0.812500 O2-
0.500000 0.500000 0.812500 O2-
1.000000 1.000000 0.875000 O2-
0.500000 0.250000 0.875000 O2-
0.500000 0.000000 0.937500 O2-
0.000000 0.750000 0.812500 O2-
0.000000 0.500000 0.875000 O2-
0.500000 0.750000 0.875000 O2-
0.000000 0.250000 0.937500 O2-
0.500000 0.500000 0.937500 O2-
0.000000 0.750000 0.937500 O2-
