Ca16 Mg32 O48
1.0
-1.995378 2.933650 3.524534
-3.990757 5.867299 -7.049070
-23.944544 -17.601898 0.000000
Ca Mg O
16 32 48
direct
1.000000 0.500000 0.250000 Ca
1.000000 0.250000 0.333333 Ca
0.500000 1.000000 0.166667 Ca
1.000000 1.000000 0.250000 Ca
0.500000 0.500000 0.333333 Ca
0.000000 0.750000 0.333333 Ca
0.500000 0.250000 0.416667 Ca
1.000000 0.500000 0.416667 Ca
1.000000 0.250000 0.500000 Ca
0.500000 0.750000 0.416667 Ca
1.000000 0.000000 0.416667 Ca
0.500000 0.500000 0.500000 Ca
0.500000 1.000000 0.500000 Ca
0.500000 0.250000 0.750000 Ca
0.500000 0.750000 0.750000 Ca
1.000000 0.750000 1.000000 Ca
0.500000 0.250000 0.083333 Mg
1.000000 0.500000 0.083333 Mg
1.000000 0.250000 0.166667 Mg
0.500000 0.750000 0.083333 Mg
1.000000 0.000000 0.083333 Mg
0.500000 0.500000 0.166667 Mg
1.000000 0.750000 0.166667 Mg
0.500000 0.250000 0.250000 Mg
0.500000 0.750000 0.250000 Mg
0.500000 0.000000 0.333333 Mg
0.000000 0.750000 0.500000 Mg
0.500000 0.250000 0.583333 Mg
1.000000 0.500000 0.583333 Mg
1.000000 0.250000 0.666667 Mg
0.500000 0.750000 0.583333 Mg
1.000000 1.000000 0.583333 Mg
0.500000 0.500000 0.666667 Mg
1.000000 0.750000 0.666667 Mg
1.000000 0.500000 0.750000 Mg
1.000000 0.250000 0.833333 Mg
0.500000 0.000000 0.666667 Mg
1.000000 1.000000 0.750000 Mg
0.500000 0.500000 0.833333 Mg
0.000000 0.750000 0.833333 Mg
0.500000 0.250000 0.916667 Mg
0.000000 0.500000 0.916667 Mg
0.000000 0.250000 1.000000 Mg
0.500000 1.000000 0.833333 Mg
0.500000 0.750000 0.916667 Mg
1.000000 1.000000 0.916667 Mg
0.500000 0.500000 1.000000 Mg
0.500000 0.000000 1.000000 Mg
0.000000 0.000000 0.000000 O
0.500000 0.250000 1.000000 O
0.500000 1.000000 0.083333 O
1.000000 0.500000 1.000000 O
0.500000 0.750000 1.000000 O
1.000000 0.250000 0.083333 O
0.500000 0.500000 0.083333 O
1.000000 1.000000 0.166667 O
0.500000 0.250000 0.166667 O
0.500000 1.000000 0.250000 O
1.000000 0.750000 0.083333 O
1.000000 0.500000 0.166667 O
0.500000 0.750000 0.166667 O
0.000000 0.250000 0.250000 O
0.500000 0.500000 0.250000 O
1.000000 1.000000 0.333333 O
0.500000 0.250000 0.333333 O
0.500000 1.000000 0.416667 O
1.000000 0.750000 0.250000 O
1.000000 0.500000 0.333333 O
0.500000 0.750000 0.333333 O
1.000000 0.250000 0.416667 O
0.500000 0.500000 0.416667 O
1.000000 1.000000 0.500000 O
0.500000 0.250000 0.500000 O
0.500000 1.000000 0.583333 O
1.000000 0.750000 0.416667 O
0.000000 0.500000 0.500000 O
0.500000 0.750000 0.500000 O
1.000000 0.250000 0.583333 O
0.500000 0.500000 0.583333 O
1.000000 1.000000 0.666667 O
0.500000 0.250000 0.666667 O
0.500000 0.000000 0.750000 O
0.000000 0.750000 0.583333 O
1.000000 0.500000 0.666667 O
0.500000 0.750000 0.666667 O
0.000000 0.250000 0.750000 O
0.500000 0.500000 0.750000 O
1.000000 1.000000 0.833333 O
0.500000 0.250000 0.833333 O
0.500000 1.000000 0.916667 O
1.000000 0.750000 0.750000 O
1.000000 0.500000 0.833333 O
0.500000 0.750000 0.833333 O
0.000000 0.250000 0.916667 O
0.500000 0.500000 0.916667 O
1.000000 0.750000 0.916667 O
