Ca16 Mg48 O64
1.0
-1.995378 2.933650 3.524534
-3.990757 5.867299 -7.049070
-31.926058 -23.469197 0.000000
Ca Mg O
16 48 64
direct
0.500000 0.250000 0.062500 Ca
1.000000 0.500000 0.062500 Ca
0.500000 0.750000 0.062500 Ca
1.000000 0.000000 0.062500 Ca
0.000000 0.250000 0.750000 Ca
0.500000 0.500000 0.750000 Ca
0.500000 0.250000 0.812500 Ca
0.000000 0.500000 0.812500 Ca
0.000000 0.000000 0.812500 Ca
0.500000 0.250000 0.937500 Ca
0.000000 0.500000 0.937500 Ca
0.000000 0.250000 0.000000 Ca
0.500000 0.750000 0.937500 Ca
0.000000 0.000000 0.937500 Ca
0.500000 0.500000 0.000000 Ca
0.000000 0.750000 0.000000 Ca
0.000000 0.250000 0.125000 Mg
0.500000 0.500000 0.125000 Mg
0.000000 0.750000 0.125000 Mg
0.500000 0.250000 0.187500 Mg
0.000000 0.500000 0.187500 Mg
0.000000 0.250000 0.250000 Mg
0.500000 0.000000 0.125000 Mg
0.500000 0.750000 0.187500 Mg
0.000000 0.000000 0.187500 Mg
0.500000 0.500000 0.250000 Mg
0.000000 0.750000 0.250000 Mg
0.500000 0.250000 0.312500 Mg
1.000000 0.500000 0.312500 Mg
0.000000 0.250000 0.375000 Mg
0.500000 0.000000 0.250000 Mg
0.500000 0.750000 0.312500 Mg
0.000000 0.000000 0.312500 Mg
0.500000 0.500000 0.375000 Mg
0.000000 0.750000 0.375000 Mg
0.500000 0.250000 0.437500 Mg
0.000000 0.500000 0.437500 Mg
0.000000 0.250000 0.500000 Mg
0.500000 0.000000 0.375000 Mg
0.500000 0.750000 0.437500 Mg
1.000000 0.000000 0.437500 Mg
0.500000 0.500000 0.500000 Mg
1.000000 0.750000 0.500000 Mg
0.500000 0.250000 0.562500 Mg
1.000000 0.500000 0.562500 Mg
1.000000 0.250000 0.625000 Mg
0.500000 0.000000 0.500000 Mg
0.500000 0.750000 0.562500 Mg
1.000000 0.000000 0.562500 Mg
0.500000 0.500000 0.625000 Mg
0.000000 0.750000 0.625000 Mg
0.500000 0.250000 0.687500 Mg
1.000000 0.500000 0.687500 Mg
0.500000 1.000000 0.625000 Mg
0.500000 0.750000 0.687500 Mg
1.000000 0.000000 0.687500 Mg
0.000000 0.750000 0.750000 Mg
0.000000 0.250000 0.875000 Mg
0.500000 0.000000 0.750000 Mg
0.500000 0.750000 0.812500 Mg
0.500000 0.500000 0.875000 Mg
0.000000 0.750000 0.875000 Mg
0.500000 0.000000 0.875000 Mg
0.500000 0.000000 0.000000 Mg
0.000000 0.000000 0.000000 O
0.500000 0.250000 0.000000 O
0.500000 0.000000 0.062500 O
1.000000 0.500000 0.000000 O
0.500000 0.750000 0.000000 O
1.000000 0.250000 0.062500 O
0.500000 0.500000 0.062500 O
0.000000 1.000000 0.125000 O
0.500000 0.250000 0.125000 O
0.500000 0.000000 0.187500 O
0.000000 0.750000 0.062500 O
1.000000 0.500000 0.125000 O
0.500000 0.750000 0.125000 O
0.000000 0.250000 0.187500 O
0.500000 0.500000 0.187500 O
0.000000 1.000000 0.250000 O
0.500000 0.250000 0.250000 O
0.500000 1.000000 0.312500 O
1.000000 0.750000 0.187500 O
0.000000 0.500000 0.250000 O
0.500000 0.750000 0.250000 O
1.000000 0.250000 0.312500 O
0.500000 0.500000 0.312500 O
0.000000 0.000000 0.375000 O
0.500000 0.250000 0.375000 O
0.500000 0.000000 0.437500 O
0.000000 0.750000 0.312500 O
0.000000 0.500000 0.375000 O
0.500000 0.750000 0.375000 O
0.000000 0.250000 0.437500 O
0.500000 0.500000 0.437500 O
0.000000 1.000000 0.500000 O
0.500000 0.250000 0.500000 O
0.500000 0.000000 0.562500 O
0.000000 0.750000 0.437500 O
0.000000 0.500000 0.500000 O
0.500000 0.750000 0.500000 O
0.000000 0.250000 0.562500 O
0.500000 0.500000 0.562500 O
0.000000 1.000000 0.625000 O
0.500000 0.250000 0.625000 O
0.500000 0.000000 0.687500 O
1.000000 0.750000 0.562500 O
1.000000 0.500000 0.625000 O
0.500000 0.750000 0.625000 O
0.000000 0.250000 0.687500 O
0.500000 0.500000 0.687500 O
0.000000 0.000000 0.750000 O
0.500000 0.250000 0.750000 O
0.500000 0.000000 0.812500 O
1.000000 0.750000 0.687500 O
0.000000 0.500000 0.750000 O
0.500000 0.750000 0.750000 O
0.000000 0.250000 0.812500 O
0.500000 0.500000 0.812500 O
1.000000 1.000000 0.875000 O
0.500000 0.250000 0.875000 O
0.500000 0.000000 0.937500 O
0.000000 0.750000 0.812500 O
0.000000 0.500000 0.875000 O
0.500000 0.750000 0.875000 O
0.000000 0.250000 0.937500 O
0.500000 0.500000 0.937500 O
0.000000 0.750000 0.937500 O
