Ca8 Mg24 O32
1.0
-1.995378 2.933650 3.524534
-3.990757 5.867299 -7.049070
-15.963029 -11.734598 0.000000
Ca Mg O
8 24 32
direct
1.000000 0.500000 0.125000 Ca
0.000000 0.500000 0.375000 Ca
0.000000 0.750000 0.500000 Ca
0.000000 0.750000 0.750000 Ca
0.000000 0.250000 0.000000 Ca
1.000000 0.000000 0.875000 Ca
0.500000 0.500000 0.000000 Ca
0.500000 0.000000 0.000000 Ca
0.500000 0.250000 0.125000 Mg
0.000000 0.250000 0.250000 Mg
0.500000 0.750000 0.125000 Mg
1.000000 0.000000 0.125000 Mg
0.500000 0.500000 0.250000 Mg
0.000000 0.750000 0.250000 Mg
0.500000 0.250000 0.375000 Mg
0.000000 0.250000 0.500000 Mg
0.500000 0.000000 0.250000 Mg
0.500000 0.750000 0.375000 Mg
0.000000 0.000000 0.375000 Mg
0.500000 0.500000 0.500000 Mg
0.500000 0.250000 0.625000 Mg
1.000000 0.500000 0.625000 Mg
0.000000 0.250000 0.750000 Mg
0.500000 0.000000 0.500000 Mg
0.500000 0.750000 0.625000 Mg
0.000000 0.000000 0.625000 Mg
0.500000 0.500000 0.750000 Mg
0.500000 0.250000 0.875000 Mg
0.000000 0.500000 0.875000 Mg
0.500000 0.000000 0.750000 Mg
0.500000 0.750000 0.875000 Mg
1.000000 0.750000 0.000000 Mg
0.000000 0.000000 0.000000 O
0.500000 0.250000 0.000000 O
0.500000 0.000000 0.125000 O
1.000000 0.500000 0.000000 O
0.500000 0.750000 0.000000 O
1.000000 0.250000 0.125000 O
0.500000 0.500000 0.125000 O
0.000000 1.000000 0.250000 O
0.500000 0.250000 0.250000 O
0.500000 0.000000 0.375000 O
0.000000 0.750000 0.125000 O
1.000000 0.500000 0.250000 O
0.500000 0.750000 0.250000 O
0.000000 0.250000 0.375000 O
0.500000 0.500000 0.375000 O
0.000000 1.000000 0.500000 O
0.500000 0.250000 0.500000 O
0.500000 1.000000 0.625000 O
1.000000 0.750000 0.375000 O
0.000000 0.500000 0.500000 O
0.500000 0.750000 0.500000 O
1.000000 0.250000 0.625000 O
0.500000 0.500000 0.625000 O
0.000000 0.000000 0.750000 O
0.500000 0.250000 0.750000 O
0.500000 0.000000 0.875000 O
0.000000 0.750000 0.625000 O
0.000000 0.500000 0.750000 O
0.500000 0.750000 0.750000 O
0.000000 0.250000 0.875000 O
0.500000 0.500000 0.875000 O
1.000000 0.750000 0.875000 O
