Ca48 Mg16 O64
1.0
-7.902490 11.175808 13.687513
-13.829357 19.557664 -3.421878
-15.804979 13.969760 -0.000000
Ca Mg O
48 16 64
direct
0.750000 1.000000 0.500000 Ca2+
0.781250 0.125000 0.500000 Ca2+
0.906250 0.625000 0.500000 Ca2+
0.843750 0.875000 1.000000 Ca2+
0.875000 1.000000 0.000000 Ca2+
0.906250 0.125000 1.000000 Ca2+
0.437500 0.750000 0.500000 Ca2+
0.468750 0.875000 0.500000 Ca2+
0.500000 1.000000 0.500000 Ca2+
0.531250 0.125000 0.500000 Ca2+
0.593750 0.375000 0.500000 Ca2+
0.625000 0.500000 0.500000 Ca2+
0.562500 0.750000 0.000000 Ca2+
0.625000 1.000000 1.000000 Ca2+
0.656250 0.125000 0.000000 Ca2+
0.687500 0.250000 1.000000 Ca2+
0.750000 0.500000 0.000000 Ca2+
0.781250 0.625000 0.000000 Ca2+
0.187500 0.750000 0.500000 Ca2+
0.218750 0.875000 0.500000 Ca2+
0.250000 1.000000 0.500000 Ca2+
0.281250 0.125000 0.500000 Ca2+
0.312500 0.250000 0.500000 Ca2+
0.343750 0.375000 0.500000 Ca2+
0.375000 0.500000 0.500000 Ca2+
0.312500 0.750000 1.000000 Ca2+
0.343750 0.875000 0.000000 Ca2+
0.375000 1.000000 0.000000 Ca2+
0.406250 0.125000 1.000000 Ca2+
0.437500 0.250000 0.000000 Ca2+
0.468750 0.375000 1.000000 Ca2+
0.531250 0.625000 0.000000 Ca2+
0.937500 0.750000 0.500000 Ca2+
0.968750 0.875000 0.500000 Ca2+
1.000000 1.000000 0.500000 Ca2+
0.031250 0.125000 0.500000 Ca2+
0.062500 0.250000 0.500000 Ca2+
0.093750 0.375000 0.500000 Ca2+
0.125000 0.500000 0.500000 Ca2+
0.156250 0.625000 0.500000 Ca2+
0.062500 0.750000 1.000000 Ca2+
0.218750 0.375000 0.000000 Ca2+
0.250000 0.500000 1.000000 Ca2+
0.281250 0.625000 1.000000 Ca2+
0.937500 0.250000 0.000000 Ca2+
0.968750 0.375000 1.000000 Ca2+
1.000000 0.500000 0.000000 Ca2+
0.031250 0.625000 1.000000 Ca2+
0.687500 0.750000 0.500000 Mg2+
0.718750 0.875000 0.500000 Mg2+
0.812500 0.250000 0.500000 Mg2+
0.843750 0.375000 0.500000 Mg2+
0.875000 0.500000 0.500000 Mg2+
0.812500 0.750000 0.000000 Mg2+
0.562500 0.250000 0.500000 Mg2+
0.656250 0.625000 0.500000 Mg2+
0.593750 0.875000 0.000000 Mg2+
0.718750 0.375000 1.000000 Mg2+
0.406250 0.625000 0.500000 Mg2+
0.500000 0.500000 1.000000 Mg2+
0.093750 0.875000 1.000000 Mg2+
0.125000 1.000000 0.000000 Mg2+
0.156250 0.125000 0.000000 Mg2+
0.187500 0.250000 1.000000 Mg2+
0.750000 1.000000 0.000000 O2-
0.781250 0.125000 0.000000 O2-
0.812500 0.250000 0.000000 O2-
0.843750 0.375000 0.000000 O2-
0.875000 0.500000 1.000000 O2-
0.906250 0.625000 0.000000 O2-
0.937500 0.750000 0.000000 O2-
0.968750 0.875000 1.000000 O2-
0.875000 1.000000 0.500000 O2-
0.906250 0.125000 0.500000 O2-
0.937500 0.250000 0.500000 O2-
0.968750 0.375000 0.500000 O2-
0.500000 1.000000 0.000000 O2-
0.531250 0.125000 0.000000 O2-
0.562500 0.250000 0.000000 O2-
0.593750 0.375000 1.000000 O2-
0.625000 0.500000 0.000000 O2-
0.656250 0.625000 1.000000 O2-
0.687500 0.750000 0.000000 O2-
0.718750 0.875000 1.000000 O2-
0.625000 1.000000 0.500000 O2-
0.656250 0.125000 0.500000 O2-
0.687500 0.250000 0.500000 O2-
0.718750 0.375000 0.500000 O2-
0.750000 0.500000 0.500000 O2-
0.781250 0.625000 0.500000 O2-
0.812500 0.750000 0.500000 O2-
0.843750 0.875000 0.500000 O2-
0.250000 1.000000 0.000000 O2-
0.281250 0.125000 0.000000 O2-
0.312500 0.250000 0.000000 O2-
0.343750 0.375000 0.000000 O2-
0.375000 0.500000 1.000000 O2-
0.406250 0.625000 0.000000 O2-
0.437500 0.750000 1.000000 O2-
0.468750 0.875000 0.000000 O2-
0.375000 1.000000 0.500000 O2-
0.406250 0.125000 0.500000 O2-
0.437500 0.250000 0.500000 O2-
0.468750 0.375000 0.500000 O2-
0.500000 0.500000 0.500000 O2-
0.531250 0.625000 0.500000 O2-
0.562500 0.750000 0.500000 O2-
0.593750 0.875000 0.500000 O2-
0.000000 0.000000 0.000000 O2-
0.031250 0.125000 0.000000 O2-
0.062500 0.250000 0.000000 O2-
0.093750 0.375000 0.000000 O2-
0.125000 0.500000 0.000000 O2-
0.156250 0.625000 1.000000 O2-
0.187500 0.750000 0.000000 O2-
0.218750 0.875000 1.000000 O2-
0.125000 1.000000 0.500000 O2-
0.156250 0.125000 0.500000 O2-
0.187500 0.250000 0.500000 O2-
0.218750 0.375000 0.500000 O2-
0.250000 0.500000 0.500000 O2-
0.281250 0.625000 0.500000 O2-
0.312500 0.750000 0.500000 O2-
0.343750 0.875000 0.500000 O2-
1.000000 0.500000 0.500000 O2-
0.031250 0.625000 0.500000 O2-
0.062500 0.750000 0.500000 O2-
0.093750 0.875000 0.500000 O2-
