Ca8 Mg40 O48
1.0
-5.926867 8.381856 10.265635
-3.951245 5.587904 -6.843757
-7.902490 -5.587904 -0.000000
Ca Mg O
8 40 48
direct
1.000000 1.000000 0.250000 Ca2+
0.333333 0.250000 0.500000 Ca2+
0.500000 0.500000 0.500000 Ca2+
0.666667 0.750000 0.500000 Ca2+
0.500000 0.250000 0.750000 Ca2+
0.333333 0.750000 0.500000 Ca2+
0.166667 0.250000 0.750000 Ca2+
0.166667 0.000000 1.000000 Ca2+
0.833333 0.250000 0.250000 Mg2+
1.000000 0.500000 0.250000 Mg2+
1.000000 0.250000 0.500000 Mg2+
0.500000 0.250000 0.250000 Mg2+
0.666667 0.500000 0.250000 Mg2+
0.833333 0.750000 0.250000 Mg2+
0.666667 0.250000 0.500000 Mg2+
0.833333 0.500000 0.500000 Mg2+
1.000000 0.750000 0.500000 Mg2+
0.833333 0.250000 0.750000 Mg2+
1.000000 0.500000 0.750000 Mg2+
1.000000 0.250000 1.000000 Mg2+
0.166667 0.250000 0.250000 Mg2+
0.333333 0.500000 0.250000 Mg2+
0.500000 0.750000 0.250000 Mg2+
0.666667 0.000000 0.250000 Mg2+
0.833333 0.000000 0.500000 Mg2+
0.666667 0.500000 0.750000 Mg2+
0.833333 0.750000 0.750000 Mg2+
1.000000 0.000000 0.750000 Mg2+
0.666667 0.250000 1.000000 Mg2+
0.833333 0.500000 1.000000 Mg2+
1.000000 0.750000 0.000000 Mg2+
0.166667 0.750000 0.250000 Mg2+
0.333333 0.000000 0.250000 Mg2+
0.166667 0.500000 0.500000 Mg2+
0.500000 0.000000 0.500000 Mg2+
0.333333 0.500000 0.750000 Mg2+
0.500000 0.750000 0.750000 Mg2+
0.666667 0.000000 0.750000 Mg2+
0.333333 0.250000 0.000000 Mg2+
0.500000 0.500000 1.000000 Mg2+
0.666667 0.750000 1.000000 Mg2+
0.833333 0.000000 0.000000 Mg2+
0.166667 0.000000 0.500000 Mg2+
0.166667 0.750000 0.750000 Mg2+
0.333333 0.000000 0.750000 Mg2+
0.166667 0.500000 0.000000 Mg2+
0.333333 0.750000 1.000000 Mg2+
0.500000 0.000000 1.000000 Mg2+
0.666667 0.000000 1.000000 O2-
0.833333 0.250000 1.000000 O2-
0.833333 0.000000 0.250000 O2-
0.333333 0.000000 1.000000 O2-
0.500000 0.250000 1.000000 O2-
0.666667 0.500000 1.000000 O2-
0.833333 0.750000 1.000000 O2-
0.500000 0.000000 0.250000 O2-
0.666667 0.250000 0.250000 O2-
0.833333 0.500000 0.250000 O2-
0.666667 0.000000 0.500000 O2-
0.833333 0.250000 0.500000 O2-
0.833333 0.000000 0.750000 O2-
0.000000 0.000000 0.000000 O2-
0.166667 0.250000 1.000000 O2-
0.333333 0.500000 1.000000 O2-
0.500000 0.750000 1.000000 O2-
0.166667 0.000000 0.250000 O2-
0.333333 0.250000 0.250000 O2-
0.500000 0.500000 0.250000 O2-
0.666667 0.750000 0.250000 O2-
0.333333 0.000000 0.500000 O2-
0.500000 0.250000 0.500000 O2-
0.666667 0.500000 0.500000 O2-
0.833333 0.750000 0.500000 O2-
0.500000 0.000000 0.750000 O2-
0.666667 0.250000 0.750000 O2-
0.833333 0.500000 0.750000 O2-
1.000000 0.500000 0.000000 O2-
0.166667 0.750000 0.000000 O2-
1.000000 0.250000 0.250000 O2-
0.166667 0.500000 0.250000 O2-
0.333333 0.750000 0.250000 O2-
0.000000 1.000000 0.500000 O2-
0.166667 0.250000 0.500000 O2-
0.333333 0.500000 0.500000 O2-
0.500000 0.750000 0.500000 O2-
0.166667 0.000000 0.750000 O2-
0.333333 0.250000 0.750000 O2-
0.500000 0.500000 0.750000 O2-
0.666667 0.750000 0.750000 O2-
1.000000 0.750000 0.250000 O2-
1.000000 0.500000 0.500000 O2-
0.166667 0.750000 0.500000 O2-
1.000000 0.250000 0.750000 O2-
0.166667 0.500000 0.750000 O2-
0.333333 0.750000 0.750000 O2-
1.000000 0.750000 0.750000 O2-
