Ca8 Mg40 O48
1.0
5.986136 -8.800949 -10.573604
3.990757 2.933650 0.000000
7.981515 -11.734598 14.098138
Ca Mg O
8 40 48
direct
0.666667 0.500000 0.250000 Ca
0.666667 0.000000 0.125000 Ca
0.166667 0.500000 0.375000 Ca
0.333333 0.500000 0.500000 Ca
0.833333 0.500000 0.875000 Ca
1.000000 0.500000 0.000000 Ca
0.166667 0.500000 0.625000 Ca
0.166667 0.000000 0.750000 Ca
0.833333 0.500000 0.125000 Mg
1.000000 0.500000 0.250000 Mg
0.000000 1.000000 0.125000 Mg
0.500000 0.500000 0.125000 Mg
0.833333 0.500000 0.375000 Mg
1.000000 0.500000 0.500000 Mg
0.833333 0.000000 0.250000 Mg
1.000000 1.000000 0.375000 Mg
0.166667 0.500000 0.125000 Mg
0.333333 0.500000 0.250000 Mg
0.500000 0.500000 0.375000 Mg
0.666667 0.500000 0.500000 Mg
0.833333 0.500000 0.625000 Mg
1.000000 0.500000 0.750000 Mg
0.333333 1.000000 0.125000 Mg
0.500000 0.000000 0.250000 Mg
0.666667 0.000000 0.375000 Mg
0.833333 1.000000 0.500000 Mg
1.000000 1.000000 0.625000 Mg
0.500000 0.500000 0.625000 Mg
0.666667 0.500000 0.750000 Mg
0.166667 1.000000 0.250000 Mg
0.333333 0.000000 0.375000 Mg
0.500000 0.000000 0.500000 Mg
0.666667 1.000000 0.625000 Mg
0.833333 1.000000 0.750000 Mg
1.000000 1.000000 0.875000 Mg
0.333333 0.500000 0.750000 Mg
0.500000 0.500000 0.875000 Mg
0.666667 0.500000 0.000000 Mg
0.166667 0.000000 0.500000 Mg
0.333333 0.000000 0.625000 Mg
0.500000 1.000000 0.750000 Mg
0.666667 1.000000 0.875000 Mg
0.833333 0.000000 0.000000 Mg
0.166667 0.500000 0.875000 Mg
0.333333 0.500000 0.000000 Mg
0.333333 1.000000 0.875000 Mg
0.500000 1.000000 0.000000 Mg
0.166667 1.000000 0.000000 Mg
0.666667 1.000000 0.000000 O
0.833333 0.000000 0.125000 O
0.833333 0.500000 0.000000 O
0.333333 1.000000 0.000000 O
0.500000 1.000000 0.125000 O
0.666667 1.000000 0.250000 O
0.833333 1.000000 0.375000 O
0.500000 0.500000 0.000000 O
0.666667 0.500000 0.125000 O
0.833333 0.500000 0.250000 O
0.000000 0.000000 0.000000 O
0.166667 1.000000 0.125000 O
0.333333 1.000000 0.250000 O
0.500000 1.000000 0.375000 O
0.666667 1.000000 0.500000 O
0.833333 1.000000 0.625000 O
0.166667 0.500000 0.000000 O
0.333333 0.500000 0.125000 O
0.500000 0.500000 0.250000 O
0.666667 0.500000 0.375000 O
0.833333 0.500000 0.500000 O
1.000000 1.000000 0.250000 O
0.166667 1.000000 0.375000 O
0.333333 1.000000 0.500000 O
0.500000 1.000000 0.625000 O
0.666667 1.000000 0.750000 O
0.833333 1.000000 0.875000 O
0.000000 0.500000 0.125000 O
0.166667 0.500000 0.250000 O
0.333333 0.500000 0.375000 O
0.500000 0.500000 0.500000 O
0.666667 0.500000 0.625000 O
0.833333 0.500000 0.750000 O
1.000000 1.000000 0.500000 O
0.166667 1.000000 0.625000 O
0.333333 1.000000 0.750000 O
0.500000 1.000000 0.875000 O
0.000000 0.500000 0.375000 O
0.166667 0.500000 0.500000 O
0.333333 0.500000 0.625000 O
0.500000 0.500000 0.750000 O
0.666667 0.500000 0.875000 O
1.000000 1.000000 0.750000 O
0.166667 1.000000 0.875000 O
1.000000 0.500000 0.625000 O
0.166667 0.500000 0.750000 O
0.333333 0.500000 0.875000 O
0.000000 0.500000 0.875000 O
