Ca16 Mg32 O48
1.0
-11.972271 17.601898 21.147208
-3.990757 5.867299 -7.049070
-5.986136 0.000000 -3.524534
Ca Mg O
16 32 48
direct
0.000000 0.250000 0.500000 Ca
0.750000 1.000000 0.500000 Ca
0.000000 0.750000 0.500000 Ca
0.833333 0.250000 0.000000 Ca
0.916667 0.500000 0.000000 Ca
0.500000 0.250000 0.500000 Ca
0.583333 0.000000 1.000000 Ca
0.500000 0.750000 0.500000 Ca
0.583333 0.500000 1.000000 Ca
0.083333 0.000000 0.500000 Ca
0.166667 0.250000 0.500000 Ca
0.416667 0.500000 1.000000 Ca
0.083333 0.500000 0.500000 Ca
0.166667 0.750000 0.500000 Ca
0.083333 0.000000 1.000000 Ca
0.333333 0.750000 1.000000 Ca
0.916667 0.000000 0.500000 Mg
0.833333 0.250000 0.500000 Mg
0.916667 0.500000 0.500000 Mg
0.916667 1.000000 0.000000 Mg
0.000000 0.250000 0.000000 Mg
0.583333 0.000000 0.500000 Mg
0.666667 0.250000 0.500000 Mg
0.750000 0.500000 0.500000 Mg
0.833333 0.750000 0.500000 Mg
0.750000 0.000000 1.000000 Mg
0.000000 0.750000 0.000000 Mg
0.416667 0.000000 0.500000 Mg
0.583333 0.500000 0.500000 Mg
0.666667 0.750000 0.500000 Mg
0.666667 0.250000 1.000000 Mg
0.750000 0.500000 0.000000 Mg
0.833333 0.750000 0.000000 Mg
0.250000 0.000000 0.500000 Mg
0.333333 0.250000 0.500000 Mg
0.416667 0.500000 0.500000 Mg
0.416667 0.000000 0.000000 Mg
0.500000 0.250000 1.000000 Mg
0.666667 0.750000 0.000000 Mg
0.250000 0.500000 0.500000 Mg
0.333333 0.750000 0.500000 Mg
0.250000 0.000000 0.000000 Mg
0.333333 0.250000 0.000000 Mg
0.500000 0.750000 1.000000 Mg
0.166667 0.250000 0.000000 Mg
0.250000 0.500000 0.000000 Mg
0.083333 0.500000 1.000000 Mg
0.166667 0.750000 0.000000 Mg
0.833333 0.000000 0.000000 O
0.916667 0.250000 1.000000 O
0.666667 0.000000 0.000000 O
0.750000 0.250000 0.000000 O
0.833333 0.500000 0.000000 O
0.916667 0.750000 0.000000 O
0.833333 0.000000 0.500000 O
0.916667 0.250000 0.500000 O
0.500000 0.000000 1.000000 O
0.583333 0.250000 1.000000 O
0.666667 0.500000 1.000000 O
0.750000 0.750000 1.000000 O
0.666667 0.000000 0.500000 O
0.750000 0.250000 0.500000 O
0.833333 0.500000 0.500000 O
0.916667 0.750000 0.500000 O
0.333333 0.000000 0.000000 O
0.416667 0.250000 0.000000 O
0.500000 0.500000 0.000000 O
0.583333 0.750000 1.000000 O
0.500000 0.000000 0.500000 O
0.583333 0.250000 0.500000 O
0.666667 0.500000 0.500000 O
0.750000 0.750000 0.500000 O
0.166667 0.000000 0.000000 O
0.250000 0.250000 0.000000 O
0.333333 0.500000 1.000000 O
0.416667 0.750000 1.000000 O
0.333333 0.000000 0.500000 O
0.416667 0.250000 0.500000 O
0.500000 0.500000 0.500000 O
0.583333 0.750000 0.500000 O
0.000000 0.000000 0.000000 O
0.083333 0.250000 1.000000 O
0.166667 0.500000 1.000000 O
0.250000 0.750000 1.000000 O
0.166667 0.000000 0.500000 O
0.250000 0.250000 0.500000 O
0.333333 0.500000 0.500000 O
0.416667 0.750000 0.500000 O
1.000000 0.500000 1.000000 O
0.083333 0.750000 1.000000 O
0.000000 0.000000 0.500000 O
0.083333 0.250000 0.500000 O
0.166667 0.500000 0.500000 O
0.250000 0.750000 0.500000 O
1.000000 0.500000 0.500000 O
0.083333 0.750000 0.500000 O
