Ca32 Mg16 O48
1.0
-11.853734 16.763712 20.531270
-3.951245 5.587904 -6.843757
-5.926867 0.000000 -3.421878
Ca Mg O
32 16 48
direct
0.750000 1.000000 0.500000 Ca2+
0.833333 0.250000 0.500000 Ca2+
0.000000 0.750000 0.500000 Ca2+
0.916667 1.000000 0.000000 Ca2+
0.000000 0.250000 0.000000 Ca2+
0.583333 0.000000 0.500000 Ca2+
0.666667 0.250000 0.500000 Ca2+
0.750000 0.500000 0.500000 Ca2+
0.000000 0.750000 0.000000 Ca2+
0.416667 0.000000 0.500000 Ca2+
0.500000 0.250000 0.500000 Ca2+
0.583333 0.500000 0.500000 Ca2+
0.666667 0.750000 0.500000 Ca2+
0.666667 0.250000 1.000000 Ca2+
0.833333 0.750000 0.000000 Ca2+
0.250000 0.000000 0.500000 Ca2+
0.333333 0.250000 0.500000 Ca2+
0.416667 0.000000 0.000000 Ca2+
0.083333 0.000000 0.500000 Ca2+
0.166667 0.250000 0.500000 Ca2+
0.250000 0.500000 0.500000 Ca2+
0.333333 0.750000 0.500000 Ca2+
0.250000 0.000000 0.000000 Ca2+
0.416667 0.500000 1.000000 Ca2+
0.500000 0.750000 1.000000 Ca2+
0.083333 0.500000 0.500000 Ca2+
0.166667 0.750000 0.500000 Ca2+
0.083333 0.000000 1.000000 Ca2+
0.166667 0.250000 0.000000 Ca2+
0.250000 0.500000 0.000000 Ca2+
0.333333 0.750000 1.000000 Ca2+
0.166667 0.750000 0.000000 Ca2+
0.916667 0.000000 0.500000 Mg2+
0.000000 0.250000 0.500000 Mg2+
0.916667 0.500000 0.500000 Mg2+
0.833333 0.750000 0.500000 Mg2+
0.750000 0.000000 1.000000 Mg2+
0.833333 0.250000 0.000000 Mg2+
0.916667 0.500000 0.000000 Mg2+
0.583333 0.000000 1.000000 Mg2+
0.750000 0.500000 0.000000 Mg2+
0.416667 0.500000 0.500000 Mg2+
0.500000 0.750000 0.500000 Mg2+
0.500000 0.250000 1.000000 Mg2+
0.583333 0.500000 1.000000 Mg2+
0.666667 0.750000 0.000000 Mg2+
0.333333 0.250000 0.000000 Mg2+
0.083333 0.500000 1.000000 Mg2+
0.833333 0.000000 0.000000 O2-
0.916667 0.250000 1.000000 O2-
0.666667 0.000000 0.000000 O2-
0.750000 0.250000 0.000000 O2-
0.833333 0.500000 0.000000 O2-
0.916667 0.750000 0.000000 O2-
0.833333 0.000000 0.500000 O2-
0.916667 0.250000 0.500000 O2-
0.500000 0.000000 1.000000 O2-
0.583333 0.250000 1.000000 O2-
0.666667 0.500000 1.000000 O2-
0.750000 0.750000 1.000000 O2-
0.666667 0.000000 0.500000 O2-
0.750000 0.250000 0.500000 O2-
0.833333 0.500000 0.500000 O2-
0.916667 0.750000 0.500000 O2-
0.333333 0.000000 0.000000 O2-
0.416667 0.250000 0.000000 O2-
0.500000 0.500000 0.000000 O2-
0.583333 0.750000 1.000000 O2-
0.500000 0.000000 0.500000 O2-
0.583333 0.250000 0.500000 O2-
0.666667 0.500000 0.500000 O2-
0.750000 0.750000 0.500000 O2-
0.166667 0.000000 0.000000 O2-
0.250000 0.250000 0.000000 O2-
0.333333 0.500000 1.000000 O2-
0.416667 0.750000 1.000000 O2-
0.333333 0.000000 0.500000 O2-
0.416667 0.250000 0.500000 O2-
0.500000 0.500000 0.500000 O2-
0.583333 0.750000 0.500000 O2-
0.000000 0.000000 0.000000 O2-
0.083333 0.250000 1.000000 O2-
0.166667 0.500000 1.000000 O2-
0.250000 0.750000 1.000000 O2-
0.166667 0.000000 0.500000 O2-
0.250000 0.250000 0.500000 O2-
0.333333 0.500000 0.500000 O2-
0.416667 0.750000 0.500000 O2-
1.000000 0.500000 1.000000 O2-
0.083333 0.750000 1.000000 O2-
0.000000 0.000000 0.500000 O2-
0.083333 0.250000 0.500000 O2-
0.166667 0.500000 0.500000 O2-
0.250000 0.750000 0.500000 O2-
1.000000 0.500000 0.500000 O2-
0.083333 0.750000 0.500000 O2-
