Ca56 Mg8 O64
1.0
7.981515 -11.734598 -14.098138
5.986136 0.000000 -3.524534
7.981515 -11.734598 14.098138
Ca Mg O
56 8 64
direct
0.750000 0.500000 0.125000 Ca
0.875000 0.500000 0.250000 Ca
0.750000 1.000000 0.125000 Ca
0.875000 1.000000 0.250000 Ca
0.500000 0.500000 0.125000 Ca
0.625000 0.500000 0.250000 Ca
0.875000 0.500000 0.500000 Ca
0.500000 0.000000 0.125000 Ca
0.625000 1.000000 0.250000 Ca
0.875000 0.000000 0.500000 Ca
0.375000 0.500000 0.250000 Ca
0.500000 0.500000 0.375000 Ca
0.625000 0.500000 0.500000 Ca
0.750000 0.500000 0.625000 Ca
0.875000 0.500000 0.750000 Ca
0.250000 0.000000 0.125000 Ca
0.375000 0.000000 0.250000 Ca
0.500000 1.000000 0.375000 Ca
0.625000 1.000000 0.500000 Ca
0.750000 0.000000 0.625000 Ca
0.875000 0.000000 0.750000 Ca
0.000000 0.500000 0.125000 Ca
0.125000 0.500000 0.250000 Ca
0.250000 0.500000 0.375000 Ca
0.375000 0.500000 0.500000 Ca
0.500000 0.500000 0.625000 Ca
0.750000 0.500000 0.875000 Ca
0.875000 0.500000 0.000000 Ca
0.000000 1.000000 0.125000 Ca
0.125000 0.000000 0.250000 Ca
0.250000 0.000000 0.375000 Ca
0.375000 1.000000 0.500000 Ca
0.500000 1.000000 0.625000 Ca
0.625000 0.000000 0.750000 Ca
0.750000 0.000000 0.875000 Ca
0.875000 1.000000 0.000000 Ca
0.000000 0.500000 0.375000 Ca
0.125000 0.500000 0.500000 Ca
0.250000 0.500000 0.625000 Ca
0.375000 0.500000 0.750000 Ca
0.500000 0.500000 0.875000 Ca
0.625000 0.500000 1.000000 Ca
0.000000 0.000000 0.375000 Ca
0.250000 1.000000 0.625000 Ca
0.375000 1.000000 0.750000 Ca
0.500000 0.000000 0.875000 Ca
0.625000 0.000000 1.000000 Ca
0.000000 0.500000 0.625000 Ca
0.125000 0.500000 0.750000 Ca
0.250000 0.500000 0.875000 Ca
0.125000 1.000000 0.750000 Ca
0.250000 1.000000 0.875000 Ca
0.375000 0.000000 0.000000 Ca
0.000000 0.500000 0.875000 Ca
0.125000 0.500000 1.000000 Ca
0.000000 1.000000 0.875000 Ca
0.750000 0.500000 0.375000 Mg
0.750000 1.000000 0.375000 Mg
0.250000 0.500000 0.125000 Mg
0.625000 0.500000 0.750000 Mg
0.125000 0.000000 0.500000 Mg
0.375000 0.500000 0.000000 Mg
0.000000 0.000000 0.625000 Mg
0.125000 1.000000 1.000000 Mg
0.750000 1.000000 1.000000 O
0.875000 1.000000 0.125000 O
0.750000 0.500000 1.000000 O
0.875000 0.500000 0.125000 O
0.500000 1.000000 1.000000 O
0.625000 1.000000 0.125000 O
0.750000 1.000000 0.250000 O
0.875000 1.000000 0.375000 O
0.500000 0.500000 1.000000 O
0.625000 0.500000 0.125000 O
0.750000 0.500000 0.250000 O
0.875000 0.500000 0.375000 O
0.250000 1.000000 1.000000 O
0.375000 1.000000 0.125000 O
0.500000 1.000000 0.250000 O
0.625000 1.000000 0.375000 O
0.750000 1.000000 0.500000 O
0.875000 1.000000 0.625000 O
0.250000 0.500000 1.000000 O
0.375000 0.500000 0.125000 O
0.500000 0.500000 0.250000 O
0.625000 0.500000 0.375000 O
0.750000 0.500000 0.500000 O
0.875000 0.500000 0.625000 O
0.000000 0.000000 0.000000 O
0.125000 1.000000 0.125000 O
0.250000 1.000000 0.250000 O
0.375000 1.000000 0.375000 O
0.500000 1.000000 0.500000 O
0.625000 1.000000 0.625000 O
0.750000 1.000000 0.750000 O
0.875000 1.000000 0.875000 O
0.000000 0.500000 1.000000 O
0.125000 0.500000 0.125000 O
0.250000 0.500000 0.250000 O
0.375000 0.500000 0.375000 O
0.500000 0.500000 0.500000 O
0.625000 0.500000 0.625000 O
0.750000 0.500000 0.750000 O
0.875000 0.500000 0.875000 O
1.000000 0.000000 0.250000 O
0.125000 0.000000 0.375000 O
0.250000 1.000000 0.500000 O
0.375000 0.000000 0.625000 O
0.500000 1.000000 0.750000 O
0.625000 1.000000 0.875000 O
0.000000 0.500000 0.250000 O
0.125000 0.500000 0.375000 O
0.250000 0.500000 0.500000 O
0.375000 0.500000 0.625000 O
0.500000 0.500000 0.750000 O
0.625000 0.500000 0.875000 O
1.000000 0.000000 0.500000 O
0.125000 1.000000 0.625000 O
0.250000 0.000000 0.750000 O
0.375000 1.000000 0.875000 O
0.000000 0.500000 0.500000 O
0.125000 0.500000 0.625000 O
0.250000 0.500000 0.750000 O
0.375000 0.500000 0.875000 O
1.000000 1.000000 0.750000 O
0.125000 0.000000 0.875000 O
0.000000 0.500000 0.750000 O
0.125000 0.500000 0.875000 O
