Ca40 Mg24 O64
1.0
-7.981515 11.734598 14.098138
-3.990757 5.867299 -7.049070
-7.981515 -5.867299 0.000000
Ca Mg O
40 24 64
direct
0.875000 0.250000 0.250000 Ca
0.000000 0.500000 0.250000 Ca
0.625000 0.250000 0.250000 Ca
0.875000 0.750000 0.250000 Ca
0.875000 0.500000 0.500000 Ca
0.000000 0.750000 0.500000 Ca
0.000000 0.500000 0.750000 Ca
0.000000 0.250000 0.000000 Ca
0.375000 0.250000 0.250000 Ca
0.625000 0.750000 0.250000 Ca
0.750000 0.000000 0.250000 Ca
0.750000 0.750000 0.500000 Ca
0.875000 1.000000 0.500000 Ca
0.625000 0.250000 0.750000 Ca
0.750000 0.500000 0.750000 Ca
0.875000 0.750000 0.750000 Ca
0.750000 0.250000 0.000000 Ca
0.875000 0.500000 0.000000 Ca
0.125000 0.250000 0.250000 Ca
0.375000 0.750000 0.250000 Ca
0.500000 0.000000 0.250000 Ca
0.250000 0.250000 0.500000 Ca
0.625000 0.000000 0.500000 Ca
0.375000 0.250000 0.750000 Ca
0.625000 0.750000 0.750000 Ca
0.750000 0.000000 0.750000 Ca
0.500000 0.250000 0.000000 Ca
0.750000 0.750000 0.000000 Ca
0.875000 1.000000 0.000000 Ca
0.125000 0.750000 0.250000 Ca
0.375000 0.000000 0.500000 Ca
0.125000 0.250000 0.750000 Ca
0.500000 0.000000 0.750000 Ca
0.250000 0.250000 0.000000 Ca
0.625000 0.000000 0.000000 Ca
0.125000 0.000000 0.500000 Ca
0.125000 0.750000 0.750000 Ca
0.125000 0.500000 0.000000 Ca
0.250000 0.750000 0.000000 Ca
0.375000 1.000000 0.000000 Ca
0.000000 0.250000 0.500000 Mg
0.750000 0.500000 0.250000 Mg
0.000000 0.000000 0.250000 Mg
0.750000 0.250000 0.500000 Mg
0.875000 0.250000 0.750000 Mg
0.500000 0.500000 0.250000 Mg
0.500000 0.250000 0.500000 Mg
0.625000 0.500000 0.500000 Mg
0.000000 0.000000 0.750000 Mg
0.000000 0.750000 0.000000 Mg
0.250000 0.500000 0.250000 Mg
0.375000 0.500000 0.500000 Mg
0.500000 0.750000 0.500000 Mg
0.500000 0.500000 0.750000 Mg
0.625000 0.500000 0.000000 Mg
0.250000 0.000000 0.250000 Mg
0.125000 0.500000 0.500000 Mg
0.250000 0.750000 0.500000 Mg
0.250000 0.500000 0.750000 Mg
0.375000 0.750000 0.750000 Mg
0.375000 0.500000 0.000000 Mg
0.500000 0.750000 0.000000 Mg
0.250000 0.000000 0.750000 Mg
0.125000 0.000000 0.000000 Mg
0.750000 1.000000 0.000000 O
0.875000 0.250000 0.000000 O
0.875000 0.000000 0.250000 O
0.500000 1.000000 0.000000 O
0.625000 0.250000 0.000000 O
0.750000 0.500000 0.000000 O
0.875000 0.750000 0.000000 O
0.625000 0.000000 0.250000 O
0.750000 0.250000 0.250000 O
0.875000 0.500000 0.250000 O
0.750000 1.000000 0.500000 O
0.875000 0.250000 0.500000 O
0.875000 0.000000 0.750000 O
0.250000 1.000000 0.000000 O
0.375000 0.250000 0.000000 O
0.500000 0.500000 0.000000 O
0.625000 0.750000 0.000000 O
0.375000 1.000000 0.250000 O
0.500000 0.250000 0.250000 O
0.625000 0.500000 0.250000 O
0.750000 0.750000 0.250000 O
0.500000 0.000000 0.500000 O
0.625000 0.250000 0.500000 O
0.750000 0.500000 0.500000 O
0.875000 0.750000 0.500000 O
0.625000 0.000000 0.750000 O
0.750000 0.250000 0.750000 O
0.875000 0.500000 0.750000 O
0.000000 0.000000 0.000000 O
0.125000 0.250000 0.000000 O
0.250000 0.500000 0.000000 O
0.375000 0.750000 0.000000 O
0.125000 0.000000 0.250000 O
0.250000 0.250000 0.250000 O
0.375000 0.500000 0.250000 O
0.500000 0.750000 0.250000 O
0.250000 0.000000 0.500000 O
0.375000 0.250000 0.500000 O
0.500000 0.500000 0.500000 O
0.625000 0.750000 0.500000 O
0.375000 0.000000 0.750000 O
0.500000 0.250000 0.750000 O
0.625000 0.500000 0.750000 O
0.750000 0.750000 0.750000 O
1.000000 0.500000 0.000000 O
0.125000 0.750000 0.000000 O
1.000000 0.250000 0.250000 O
0.125000 0.500000 0.250000 O
0.250000 0.750000 0.250000 O
0.000000 1.000000 0.500000 O
0.125000 0.250000 0.500000 O
0.250000 0.500000 0.500000 O
0.375000 0.750000 0.500000 O
0.125000 0.000000 0.750000 O
0.250000 0.250000 0.750000 O
0.375000 0.500000 0.750000 O
0.500000 0.750000 0.750000 O
0.000000 0.750000 0.250000 O
1.000000 0.500000 0.500000 O
0.125000 0.750000 0.500000 O
0.000000 0.250000 0.750000 O
0.125000 0.500000 0.750000 O
0.250000 0.750000 0.750000 O
1.000000 0.750000 0.750000 O
