Ca8 Mg40 O48
1.0
-1.975622 2.793952 3.421878
-3.951245 5.587904 -6.843757
-23.707469 -16.763712 -0.000000
Ca Mg O
8 40 48
direct
0.500000 0.750000 0.083333 Ca2+
0.500000 0.750000 0.416667 Ca2+
0.500000 0.750000 0.750000 Ca2+
1.000000 1.000000 0.750000 Ca2+
0.500000 0.500000 0.833333 Ca2+
0.500000 0.250000 0.916667 Ca2+
0.000000 0.250000 1.000000 Ca2+
1.000000 1.000000 0.916667 Ca2+
0.500000 0.250000 0.083333 Mg2+
1.000000 0.500000 0.083333 Mg2+
1.000000 0.250000 0.166667 Mg2+
1.000000 0.000000 0.083333 Mg2+
0.500000 0.500000 0.166667 Mg2+
1.000000 0.750000 0.166667 Mg2+
0.500000 0.250000 0.250000 Mg2+
1.000000 0.500000 0.250000 Mg2+
1.000000 0.250000 0.333333 Mg2+
0.500000 1.000000 0.166667 Mg2+
0.500000 0.750000 0.250000 Mg2+
1.000000 1.000000 0.250000 Mg2+
0.500000 0.500000 0.333333 Mg2+
0.000000 0.750000 0.333333 Mg2+
0.500000 0.250000 0.416667 Mg2+
1.000000 0.500000 0.416667 Mg2+
1.000000 0.250000 0.500000 Mg2+
0.500000 0.000000 0.333333 Mg2+
1.000000 0.000000 0.416667 Mg2+
0.500000 0.500000 0.500000 Mg2+
0.000000 0.750000 0.500000 Mg2+
0.500000 0.250000 0.583333 Mg2+
1.000000 0.500000 0.583333 Mg2+
1.000000 0.250000 0.666667 Mg2+
0.500000 1.000000 0.500000 Mg2+
0.500000 0.750000 0.583333 Mg2+
1.000000 1.000000 0.583333 Mg2+
0.500000 0.500000 0.666667 Mg2+
1.000000 0.750000 0.666667 Mg2+
0.500000 0.250000 0.750000 Mg2+
1.000000 0.500000 0.750000 Mg2+
1.000000 0.250000 0.833333 Mg2+
0.500000 0.000000 0.666667 Mg2+
0.000000 0.750000 0.833333 Mg2+
0.000000 0.500000 0.916667 Mg2+
0.500000 1.000000 0.833333 Mg2+
0.500000 0.750000 0.916667 Mg2+
0.500000 0.500000 1.000000 Mg2+
1.000000 0.750000 1.000000 Mg2+
0.500000 0.000000 1.000000 Mg2+
0.000000 0.000000 0.000000 O2-
0.500000 0.250000 1.000000 O2-
0.500000 1.000000 0.083333 O2-
1.000000 0.500000 1.000000 O2-
0.500000 0.750000 1.000000 O2-
1.000000 0.250000 0.083333 O2-
0.500000 0.500000 0.083333 O2-
1.000000 1.000000 0.166667 O2-
0.500000 0.250000 0.166667 O2-
0.500000 1.000000 0.250000 O2-
1.000000 0.750000 0.083333 O2-
1.000000 0.500000 0.166667 O2-
0.500000 0.750000 0.166667 O2-
0.000000 0.250000 0.250000 O2-
0.500000 0.500000 0.250000 O2-
1.000000 1.000000 0.333333 O2-
0.500000 0.250000 0.333333 O2-
0.500000 1.000000 0.416667 O2-
1.000000 0.750000 0.250000 O2-
1.000000 0.500000 0.333333 O2-
0.500000 0.750000 0.333333 O2-
1.000000 0.250000 0.416667 O2-
0.500000 0.500000 0.416667 O2-
1.000000 1.000000 0.500000 O2-
0.500000 0.250000 0.500000 O2-
0.500000 1.000000 0.583333 O2-
1.000000 0.750000 0.416667 O2-
0.000000 0.500000 0.500000 O2-
0.500000 0.750000 0.500000 O2-
1.000000 0.250000 0.583333 O2-
0.500000 0.500000 0.583333 O2-
1.000000 1.000000 0.666667 O2-
0.500000 0.250000 0.666667 O2-
0.500000 0.000000 0.750000 O2-
0.000000 0.750000 0.583333 O2-
1.000000 0.500000 0.666667 O2-
0.500000 0.750000 0.666667 O2-
0.000000 0.250000 0.750000 O2-
0.500000 0.500000 0.750000 O2-
1.000000 1.000000 0.833333 O2-
0.500000 0.250000 0.833333 O2-
0.500000 1.000000 0.916667 O2-
1.000000 0.750000 0.750000 O2-
1.000000 0.500000 0.833333 O2-
0.500000 0.750000 0.833333 O2-
0.000000 0.250000 0.916667 O2-
0.500000 0.500000 0.916667 O2-
1.000000 0.750000 0.916667 O2-
