Ca16 Mg32 O48
1.0
7.981515 -11.734598 -14.098138
3.990757 2.933650 0.000000
5.986136 -8.800949 10.573604
Ca Mg O
16 32 48
direct
0.875000 0.500000 0.166667 Ca
0.750000 0.500000 0.333333 Ca
0.000000 0.500000 0.666667 Ca
0.875000 1.000000 0.333333 Ca
0.375000 0.500000 0.166667 Ca
0.875000 0.500000 0.833333 Ca
0.625000 0.000000 0.333333 Ca
0.125000 0.500000 0.166667 Ca
0.750000 0.500000 0.000000 Ca
0.375000 0.000000 0.333333 Ca
0.500000 0.000000 0.500000 Ca
0.750000 1.000000 0.833333 Ca
0.125000 0.500000 0.500000 Ca
0.375000 0.500000 0.833333 Ca
0.500000 1.000000 0.833333 Ca
0.250000 0.000000 0.833333 Ca
0.000000 0.500000 0.333333 Mg
0.000000 1.000000 0.166667 Mg
0.625000 0.500000 0.166667 Mg
0.875000 0.500000 0.500000 Mg
0.750000 0.000000 0.166667 Mg
0.000000 1.000000 0.500000 Mg
0.500000 0.500000 0.333333 Mg
0.625000 0.500000 0.500000 Mg
0.750000 0.500000 0.666667 Mg
0.000000 0.500000 1.000000 Mg
0.500000 0.000000 0.166667 Mg
0.750000 1.000000 0.500000 Mg
0.875000 1.000000 0.666667 Mg
0.000000 0.000000 0.833333 Mg
0.250000 0.500000 0.333333 Mg
0.375000 0.500000 0.500000 Mg
0.500000 0.500000 0.666667 Mg
0.625000 0.500000 0.833333 Mg
0.250000 1.000000 0.166667 Mg
0.625000 1.000000 0.666667 Mg
0.875000 0.000000 1.000000 Mg
0.250000 0.500000 0.666667 Mg
0.500000 0.500000 1.000000 Mg
0.125000 1.000000 0.333333 Mg
0.250000 0.000000 0.500000 Mg
0.375000 0.000000 0.666667 Mg
0.625000 1.000000 1.000000 Mg
0.125000 0.500000 0.833333 Mg
0.250000 0.500000 0.000000 Mg
0.125000 0.000000 0.666667 Mg
0.375000 1.000000 0.000000 Mg
0.125000 0.000000 1.000000 Mg
0.750000 1.000000 1.000000 O
0.875000 1.000000 0.166667 O
0.875000 0.500000 0.000000 O
0.500000 1.000000 1.000000 O
0.625000 1.000000 0.166667 O
0.750000 1.000000 0.333333 O
0.875000 1.000000 0.500000 O
0.625000 0.500000 1.000000 O
0.750000 0.500000 0.166667 O
0.875000 0.500000 0.333333 O
0.250000 1.000000 1.000000 O
0.375000 1.000000 0.166667 O
0.500000 1.000000 0.333333 O
0.625000 1.000000 0.500000 O
0.750000 1.000000 0.666667 O
0.875000 1.000000 0.833333 O
0.375000 0.500000 1.000000 O
0.500000 0.500000 0.166667 O
0.625000 0.500000 0.333333 O
0.750000 0.500000 0.500000 O
0.875000 0.500000 0.666667 O
0.000000 0.000000 0.000000 O
0.125000 1.000000 0.166667 O
0.250000 1.000000 0.333333 O
0.375000 1.000000 0.500000 O
0.500000 1.000000 0.666667 O
0.625000 1.000000 0.833333 O
0.125000 0.500000 1.000000 O
0.250000 0.500000 0.166667 O
0.375000 0.500000 0.333333 O
0.500000 0.500000 0.500000 O
0.625000 0.500000 0.666667 O
0.750000 0.500000 0.833333 O
0.000000 1.000000 0.333333 O
0.125000 1.000000 0.500000 O
0.250000 1.000000 0.666667 O
0.375000 1.000000 0.833333 O
0.000000 0.500000 0.166667 O
0.125000 0.500000 0.333333 O
0.250000 0.500000 0.500000 O
0.375000 0.500000 0.666667 O
0.500000 0.500000 0.833333 O
0.000000 1.000000 0.666667 O
0.125000 1.000000 0.833333 O
0.000000 0.500000 0.500000 O
0.125000 0.500000 0.666667 O
0.250000 0.500000 0.833333 O
0.000000 0.500000 0.833333 O
