Ca16 Mg32 O48
1.0
7.902490 -11.175808 -13.687513
3.951245 2.793952 0.000000
5.926867 -8.381856 10.265635
Ca Mg O
16 32 48
direct
0.750000 0.500000 0.333333 Ca2+
0.750000 0.000000 0.166667 Ca2+
0.375000 0.500000 0.166667 Ca2+
0.625000 0.500000 0.500000 Ca2+
0.500000 0.000000 0.166667 Ca2+
0.125000 0.500000 0.166667 Ca2+
0.625000 0.500000 0.833333 Ca2+
0.750000 0.500000 0.000000 Ca2+
0.375000 0.000000 0.333333 Ca2+
0.500000 0.000000 0.500000 Ca2+
0.875000 0.000000 1.000000 Ca2+
0.250000 0.500000 0.666667 Ca2+
0.375000 0.500000 0.833333 Ca2+
0.125000 1.000000 0.333333 Ca2+
0.500000 1.000000 0.833333 Ca2+
0.125000 0.000000 0.666667 Ca2+
0.875000 0.500000 0.166667 Mg2+
0.000000 0.500000 0.333333 Mg2+
0.000000 1.000000 0.166667 Mg2+
0.625000 0.500000 0.166667 Mg2+
0.875000 0.500000 0.500000 Mg2+
0.000000 0.500000 0.666667 Mg2+
0.875000 1.000000 0.333333 Mg2+
0.000000 1.000000 0.500000 Mg2+
0.500000 0.500000 0.333333 Mg2+
0.750000 0.500000 0.666667 Mg2+
0.875000 0.500000 0.833333 Mg2+
0.000000 0.500000 1.000000 Mg2+
0.625000 0.000000 0.333333 Mg2+
0.750000 1.000000 0.500000 Mg2+
0.875000 1.000000 0.666667 Mg2+
0.000000 0.000000 0.833333 Mg2+
0.250000 0.500000 0.333333 Mg2+
0.375000 0.500000 0.500000 Mg2+
0.500000 0.500000 0.666667 Mg2+
0.250000 1.000000 0.166667 Mg2+
0.625000 1.000000 0.666667 Mg2+
0.750000 1.000000 0.833333 Mg2+
0.125000 0.500000 0.500000 Mg2+
0.500000 0.500000 1.000000 Mg2+
0.250000 0.000000 0.500000 Mg2+
0.375000 0.000000 0.666667 Mg2+
0.625000 1.000000 1.000000 Mg2+
0.125000 0.500000 0.833333 Mg2+
0.250000 0.500000 0.000000 Mg2+
0.250000 0.000000 0.833333 Mg2+
0.375000 1.000000 0.000000 Mg2+
0.125000 0.000000 1.000000 Mg2+
0.750000 1.000000 1.000000 O2-
0.875000 1.000000 0.166667 O2-
0.875000 0.500000 0.000000 O2-
0.500000 1.000000 1.000000 O2-
0.625000 1.000000 0.166667 O2-
0.750000 1.000000 0.333333 O2-
0.875000 1.000000 0.500000 O2-
0.625000 0.500000 1.000000 O2-
0.750000 0.500000 0.166667 O2-
0.875000 0.500000 0.333333 O2-
0.250000 1.000000 1.000000 O2-
0.375000 1.000000 0.166667 O2-
0.500000 1.000000 0.333333 O2-
0.625000 1.000000 0.500000 O2-
0.750000 1.000000 0.666667 O2-
0.875000 1.000000 0.833333 O2-
0.375000 0.500000 1.000000 O2-
0.500000 0.500000 0.166667 O2-
0.625000 0.500000 0.333333 O2-
0.750000 0.500000 0.500000 O2-
0.875000 0.500000 0.666667 O2-
0.000000 0.000000 0.000000 O2-
0.125000 1.000000 0.166667 O2-
0.250000 1.000000 0.333333 O2-
0.375000 1.000000 0.500000 O2-
0.500000 1.000000 0.666667 O2-
0.625000 1.000000 0.833333 O2-
0.125000 0.500000 1.000000 O2-
0.250000 0.500000 0.166667 O2-
0.375000 0.500000 0.333333 O2-
0.500000 0.500000 0.500000 O2-
0.625000 0.500000 0.666667 O2-
0.750000 0.500000 0.833333 O2-
0.000000 1.000000 0.333333 O2-
0.125000 1.000000 0.500000 O2-
0.250000 1.000000 0.666667 O2-
0.375000 1.000000 0.833333 O2-
0.000000 0.500000 0.166667 O2-
0.125000 0.500000 0.333333 O2-
0.250000 0.500000 0.500000 O2-
0.375000 0.500000 0.666667 O2-
0.500000 0.500000 0.833333 O2-
0.000000 1.000000 0.666667 O2-
0.125000 1.000000 0.833333 O2-
0.000000 0.500000 0.500000 O2-
0.125000 0.500000 0.666667 O2-
0.250000 0.500000 0.833333 O2-
0.000000 0.500000 0.833333 O2-
